NAME: berlin52
TYPE: TOUR
DIMENSION: 52
TOUR_SECTION
1
2
8
38
39
40
41
42
9
43
44
45
46
47
10
48
49
50
51
52
11
12
3
13
14
15
16
17
4
18
19
20
21
22
5
23
24
25
26
27
6
28
29
30
31
32
7
33
34
35
36
37
EOF